
Gurobi 12.0.3 (win64) logging started Sun Nov  9 23:32:41 2025

Set parameter LogFile to value "Results\10_percent\budget_200000\stage_1\gurobi.log"
Gurobi Optimizer version 12.0.3 build v12.0.3rc0 (win64 - Windows 11+.0 (26200.2))

CPU model: Intel(R) Core(TM) Ultra 7 265K, instruction set [SSE2|AVX|AVX2]
Thread count: 20 physical cores, 20 logical processors, using up to 20 threads

Non-default parameters:
TimeLimit  86400

Optimize a model with 2726 rows, 24443 columns and 168883 nonzeros
Model fingerprint: 0xfce96326
Variable types: 0 continuous, 24443 integer (24443 binary)
Coefficient statistics:
  Matrix range     [1e+00, 2e+03]
  Objective range  [1e+00, 1e+00]
  Bounds range     [1e+00, 1e+00]
  RHS range        [1e+00, 2e+05]
Found heuristic solution: objective 703.0000000
Presolve removed 281 rows and 17 columns
Presolve time: 0.19s
Presolved: 2445 rows, 24426 columns, 155074 nonzeros
Variable types: 0 continuous, 24426 integer (24413 binary)
Deterministic concurrent LP optimizer: primal and dual simplex
Showing primal log only...

Concurrent spin time: 0.02s

Solved with dual simplex

Root relaxation: objective 1.300000e+03, 3258 iterations, 0.13 seconds (0.25 work units)

    Nodes    |    Current Node    |     Objective Bounds      |     Work
 Expl Unexpl |  Obj  Depth IntInf | Incumbent    BestBd   Gap | It/Node Time

     0     0 1300.00000    0   92  703.00000 1300.00000  84.9%     -    0s
H    0     0                    1061.0000000 1300.00000  22.5%     -    0s
H    0     0                    1066.0000000 1300.00000  22.0%     -    0s
H    0     0                    1098.0000000 1300.00000  18.4%     -    0s
H    0     0                    1119.0000000 1300.00000  16.2%     -    0s
H    0     0                    1172.0000000 1300.00000  10.9%     -    0s
H    0     0                    1182.0000000 1300.00000  10.0%     -    0s
H    0     0                    1185.0000000 1300.00000  9.70%     -    0s
H    0     0                    1186.0000000 1300.00000  9.61%     -    0s
H    0     0                    1188.0000000 1300.00000  9.43%     -    0s
H    0     0                    1216.0000000 1300.00000  6.91%     -    0s
H    0     0                    1223.0000000 1300.00000  6.30%     -    0s
H    0     0                    1226.0000000 1300.00000  6.04%     -    0s
H    0     0                    1227.0000000 1300.00000  5.95%     -    0s
H    0     0                    1232.0000000 1300.00000  5.52%     -    0s
H    0     0                    1235.0000000 1300.00000  5.26%     -    0s
H    0     0                    1254.0000000 1300.00000  3.67%     -    0s
H    0     0                    1255.0000000 1300.00000  3.59%     -    0s
H    0     0                    1256.0000000 1300.00000  3.50%     -    0s
H    0     0                    1266.0000000 1300.00000  2.69%     -    0s
H    0     0                    1270.0000000 1300.00000  2.36%     -    0s
     0     0 1300.00000    0  615 1270.00000 1300.00000  2.36%     -    0s
H    0     0                    1271.0000000 1300.00000  2.28%     -    1s
H    0     0                    1289.0000000 1300.00000  0.85%     -    1s
H    0     0                    1290.0000000 1300.00000  0.78%     -    1s
H    0     0                    1291.0000000 1300.00000  0.70%     -    1s
H    0     0                    1292.0000000 1300.00000  0.62%     -    1s
H    0     0                    1293.0000000 1300.00000  0.54%     -    1s
     0     0 1300.00000    0  546 1293.00000 1300.00000  0.54%     -    1s
H    0     0                    1294.0000000 1300.00000  0.46%     -    1s
H    0     0                    1295.0000000 1300.00000  0.39%     -    1s
H    0     0                    1296.0000000 1300.00000  0.31%     -    1s
H    0     0                    1297.0000000 1300.00000  0.23%     -    1s
H    0     0                    1299.0000000 1300.00000  0.08%     -    1s
     0     0 1300.00000    0   39 1299.00000 1300.00000  0.08%     -    1s
H    0     0                    1300.0000000 1300.00000  0.00%     -    1s
     0     0 1300.00000    0   39 1300.00000 1300.00000  0.00%     -    1s

Cutting planes:
  Gomory: 2
  Cover: 304
  Clique: 447
  MIR: 51
  StrongCG: 7
  Relax-and-lift: 1
  BQP: 1

Explored 1 nodes (12272 simplex iterations) in 1.75 seconds (3.03 work units)
Thread count was 20 (of 20 available processors)

Solution count 10: 1300 1299 1297 ... 1290

Optimal solution found (tolerance 1.00e-04)
Best objective 1.300000000000e+03, best bound 1.300000000000e+03, gap 0.0000%
